p edge 26 89
e 1 4
e 1 5
e 1 7
e 1 8
e 1 12
e 1 13
e 1 15
e 1 16
e 1 18
e 1 19
e 1 22
e 1 24
e 1 25
e 2 5
e 2 11
e 2 12
e 2 14
e 2 21
e 2 26
e 3 4
e 3 7
e 4 5
e 4 7
e 4 11
e 4 12
e 4 18
e 4 19
e 5 7
e 5 11
e 5 12
e 5 18
e 5 19
e 5 21
e 6 8
e 6 10
e 6 13
e 6 16
e 6 20
e 6 24
e 6 25
e 7 11
e 7 12
e 7 18
e 7 19
e 8 10
e 8 13
e 8 15
e 8 16
e 8 18
e 8 20
e 8 22
e 8 24
e 8 25
e 9 23
e 10 13
e 10 15
e 10 20
e 10 24
e 10 25
e 11 12
e 11 14
e 11 18
e 11 21
e 11 26
e 12 18
e 12 19
e 12 21
e 13 16
e 13 24
e 13 25
e 14 21
e 14 26
e 15 18
e 15 20
e 15 22
e 15 24
e 15 25
e 16 19
e 16 24
e 16 25
e 17 23
e 18 19
e 20 22
e 20 24
e 20 25
e 21 26
e 22 24
e 22 25
e 24 25
